s 1
v -842150451 -2 -3 4 5 -6 -1600085861 8 1010580533 10 -11 -12 13 14 -15 16 -1431655779 18 -19 -20 -21 22 23 24 25 26 -27 28 29 505290246 31 -1179010656 33 -34 -35 -36 37 -1936946066 -39 40 -168430123 42 43 -44 757935369 46 47 48 49 50 
t 2ms